# Random Circle Problem
param d := 0.05; 
param n := 10; 
param radius := 2.00; 
param v0 := 
1 5.40
2 5.88
3 5.90
4 5.56
5 5.71
6 5.93
7 5.72
8 5.54
9 5.42
10 5.66
;
param cap := 
1 3.34628
2 4.01548
3 4.09268
4 4.89342
5 6.17725
6 5.91897
7 0.82759
8 1.66700
9 1.54128
10 2.44245
;
param x0 := 
1 2.00
2 1.62
3 0.62
4 -0.62
5 -1.62
6 -2.00
7 -1.62
8 -0.62
9 0.62
10 1.62
;
param y0 := 
1 -0.00
2 1.18
3 1.90
4 1.90
5 1.18
6 0.00
7 -1.18
8 -1.90
9 -1.90
10 -1.18
;
